c ---- [ banner ] ------------------------------------------------------------
c
c Kissat SAT Solver
c 
c Copyright (c) 2021-2024 Armin Biere University of Freiburg
c Copyright (c) 2019-2021 Armin Biere Johannes Kepler University Linz
c 
c Version 4.0.1 43f02cf3e992cb44653b35e5cb26f93281552ae0
c gcc (Ubuntu 13.2.0-23ubuntu4) 13.2.0 -W -Wall -O3 -DNDEBUG
c Thu Sep 12 12:27:46 CEST 2024 Linux abryzen9 6.8.0-41-generic x86_64
c
c ---- [ parsing ] -----------------------------------------------------------
c
c opened and reading DIMACS file:
c
c   /data/artifact/AMulet2.0_artifact/exp4/cnf_resyn3_64/64_64_U_SP_WT_LF_GenMul_resyn3.cnf
c
c parsed 'p cnf 27043 119002' header
c closing input after reading 2358108 bytes (2 MB)
c finished parsing after 0.03 seconds
c
c ---- [ options ] -----------------------------------------------------------
c
c --stable=0                       (different from default '1')
c
c ---- [ solving ] -----------------------------------------------------------
c
c  seconds switched rate     size/glue tier1  binary           remaining
c         MB reductions conflicts size  tier2     irredundant
c          level restarts redundant glue  trail           variables
c
c *  0.03 10 0 0 0  0 0   0   0 0.0 0 0 0 0 0% 12269 106731 27040 100%
c (  0.05 11 0 0 0  0 0   0   0 0.0 0 0 0 0 0% 12269 106731 27040 100%
c .  0.06 12 0 0 0  0 0   0   0 0.0 0 0 0 0 0% 12265 106731 27040 100%
c c  0.14 17 0 0 0  0 0   0   0 0.0 0 0 0 0 0% 12283 106730 27038 100%
c d  0.15 17 0 0 0  0 0   0   0 0.0 0 0 0 0 0% 12279 106730 27038 100%
c f  0.32 16 0 0 0  0 0   0   0 0.0 0 0 0 0 0% 16985 99165 29738 110%
c e  0.51 24 0 0 0  0 0   0   0 0.0 0 0 0 0 0% 11128 107294 20847 77%
c )  0.51 24 0 0 0  0 0   0   0 0.0 0 0 0 0 0% 11128 107294 20847 77%
c {  0.53 24 0 0 0  0 0   0   0 0.0 0 0 2 6 0% 11128 107294 20847 77%
c -  0.80 24 131 0 1 335 41 1000 695 2.7 11 4 3 9 16% 11274 107287 20847 77%
c -  1.15 24 274 0 2 513 47 2000 1398 4.2 24 6 3 11 20% 11332 107287 20847 77%
c d  1.22 24 306 0 2 561 45 2506 1832 4.0 22 6 2 11 20% 11348 107286 20840 77%
c u  1.24 24 306 0 2 561 45 2506 1588 4.0 22 6 2 11 20% 11354 107286 20840 77%
c v  1.27 24 306 0 2 561 45 2506 1241 4.0 22 6 2 11 20% 11355 107286 20840 77%
c w  1.30 24 306 0 2 561 45 2506 1239 4.0 22 6 2 11 20% 11355 107286 20840 77%
c x  1.32 24 306 0 2 561 45 2506 1239 4.0 22 6 2 11 20% 11357 107114 20840 77%
c t  1.34 24 306 0 2 561 45 2506 1239 4.0 22 6 2 11 20% 11352 107114 20840 77%
c f  1.38 24 306 0 2 561 45 2506 1239 4.0 22 6 2 11 20% 12090 105528 21489 79%
c c  1.46 21 306 0 2 561 45 2506 1239 4.0 22 6 2 11 20% 12098 105518 21486 79%
c d  1.47 21 306 0 2 561 45 2506 1239 4.0 22 6 2 11 20% 12092 105518 21486 79%
c
c  seconds   switched   rate       size/glue tier1     binary           remaining
c         MB  reductions conflicts       size  tier2       irredundant
c           level restarts    redundant    glue    trail           variables
c
c u  1.49 21 306 0 2 561 45 2506 1195 4.0 22 6 2 11 20% 12095 105518 21486 79%
c v  1.50 21 306 0 2 561 45 2506 1161 4.0 22 6 2 11 20% 12095 105518 21486 79%
c w  1.53 22 306 0 2 561 45 2506 1156 4.0 22 6 2 11 20% 12095 105518 21486 79%
c =  1.64 24 306 0 2 561 45 2506 1156 4.0 22 6 2 11 20% 12099 105517 21484 79%
c d  1.65 24 306 0 2 561 45 2506 1156 4.0 22 6 2 11 20% 12093 105517 21484 79%
c f  1.69 24 306 0 2 561 45 2506 1156 4.0 22 6 2 11 20% 12169 105392 21523 80%
c -  1.95 26 318 0 3 737 46 3414 1625 4.0 23 6 2 10 20% 12228 105392 21523 80%
c -  2.17 26 414 0 4 866 45 5146 2744 3.9 20 5 2 8 20% 12382 105391 21523 80%
c -  2.86 26 406 0 5 1163 44 7146 3980 4.0 22 5 2 7 22% 12467 105390 21523 80%
c d  3.32 26 389 0 5 1317 45 7712 4474 4.6 28 6 2 7 23% 12419 105390 21491 79%
c u  3.36 26 389 0 5 1317 45 7712 3788 4.6 28 6 2 7 23% 12444 105390 21491 79%
c v  3.40 26 389 0 5 1317 45 7712 3274 4.6 28 6 2 7 23% 12446 105390 21491 79%
c w  3.53 26 389 0 5 1317 45 7712 3272 4.6 28 6 2 7 23% 12446 105390 21491 79%
c =  3.70 26 389 0 5 1317 45 7712 3272 4.6 28 6 2 7 23% 12876 105390 21276 79%
c d  3.71 26 389 0 5 1317 45 7712 3252 4.6 28 6 2 7 23% 12421 105390 21271 79%
c t  3.73 26 389 0 5 1317 45 7712 3252 4.6 28 6 2 7 23% 12410 105390 21271 79%
c f  3.78 26 389 0 5 1317 45 7712 3252 4.6 28 6 2 7 23% 13304 104032 21723 80%
c u  3.83 26 389 0 5 1317 45 7712 3119 4.6 28 6 2 7 23% 13306 104032 21723 80%
c v  3.86 26 389 0 5 1317 45 7712 3038 4.6 28 6 2 7 23% 13307 104032 21723 80%
c w  3.94 26 389 0 5 1317 45 7712 3027 4.6 28 6 2 7 23% 13307 104032 21723 80%
c
c  seconds   switched    rate       size/glue tier1    binary           remaining
c         MB  reductions  conflicts       size  tier2      irredundant
c           level  restarts    redundant    glue   trail           variables
c
c x  3.98 26 389 0 5 1317 45 7712 3027 4.6 28 6 2 7 23% 13307 103960 21723 80%
c =  4.12 26 389 0 5 1317 45 7712 3027 4.6 28 6 2 7 23% 13723 103960 21515 80%
c d  4.13 26 389 0 5 1317 45 7712 3026 4.6 28 6 2 7 23% 13131 103960 21515 80%
c t  4.15 26 389 0 5 1317 45 7712 3026 4.6 28 6 2 7 23% 13059 103960 21515 80%
c f  4.20 26 389 0 5 1317 45 7712 3026 4.6 28 6 2 7 23% 15935 99642 22957 85%
c -  4.47 26 397 0 6 1420 43 9384 3936 4.4 26 6 2 8 23% 16022 99638 22957 85%
c o  4.54 26 407 0 6 1443 42 10002 4445 4.3 26 6 2 8 22% 16068 99638 22957 85%
c -  5.08 26 382 0 7 1633 40 11834 5314 4.4 26 6 2 8 23% 16144 99637 22957 85%
c s  5.26 26 384 0 7 1687 39 12512 5841 4.4 26 6 2 8 23% 16194 97880 22957 85%
c e  5.39 26 384 0 7 1687 39 12512 5841 4.4 26 6 2 8 23% 15223 98582 22248 82%
c s  5.40 26 384 0 7 1687 39 12512 5841 4.4 26 6 2 8 23% 15227 98223 22248 82%
c e  5.41 26 384 0 7 1687 39 12512 5841 4.4 26 6 2 8 23% 15178 98252 22222 82%
c ^  5.41 26 384 0 7 1687 39 12512 5841 4.4 26 6 2 8 23% 15178 98252 22222 82%
c -  6.06 26 376 0 8 1911 39 14479 6185 4.4 27 6 2 8 24% 15281 98252 22222 82%
c c  6.66 26 370 0 8 2085 39 15795 7279 4.5 29 6 2 8 24% 15371 98087 22182 82%
c d  6.66 26 370 0 8 2085 39 15795 7241 4.5 29 6 2 8 24% 14838 98087 21911 81%
c u  6.71 26 370 0 8 2085 39 15795 6185 4.5 29 6 2 8 24% 14872 98087 21911 81%
c v  6.76 26 370 0 8 2085 39 15795 5371 4.5 29 6 2 8 24% 14873 98087 21911 81%
c w  6.90 26 370 0 8 2085 39 15795 5371 4.5 29 6 2 8 24% 14873 98087 21911 81%
c =  7.09 26 370 0 8 2085 39 15795 5371 4.5 29 6 2 8 24% 15321 98087 21687 80%
c
c  seconds   switched    rate        size/glue tier1    binary          remaining
c         MB  reductions   conflicts       size  tier2      irredundant
c           level  restarts     redundant    glue   trail          variables
c
c d  7.10 26 370 0 8 2085 39 15795 5355 4.5 29 6 2 8 24% 14671 98087 21680 80%
c t  7.13 26 370 0 8 2085 39 15795 5355 4.5 29 6 2 8 24% 14627 98087 21680 80%
c f  7.19 26 370 0 8 2085 39 15795 5355 4.5 29 6 2 8 24% 14665 97989 21705 80%
c u  7.24 26 370 0 8 2085 39 15795 5149 4.5 29 6 2 8 24% 14667 97989 21705 80%
c v  7.27 26 370 0 8 2085 39 15795 5021 4.5 29 6 2 8 24% 14667 97989 21705 80%
c w  7.44 26 370 0 8 2085 39 15795 4984 4.5 29 6 2 8 24% 14667 97989 21705 80%
c =  7.64 26 370 0 8 2085 39 15795 4984 4.5 29 6 2 8 24% 14959 97989 21559 80%
c d  7.65 26 370 0 8 2085 39 15795 4947 4.5 29 6 2 8 24% 14637 97989 21559 80%
c t  7.67 26 370 0 8 2085 39 15795 4947 4.5 29 6 2 8 24% 14632 97989 21559 80%
c f  7.70 26 370 0 8 2085 39 15795 4947 4.5 29 6 2 8 24% 14634 97984 21560 80%
c -  8.21 26 367 0 9 2266 39 17307 5551 4.6 29 6 2 7 24% 14701 97980 21560 80%
c o  8.84 26 357 0 9 2460 37 20033 7870 4.4 29 7 2 7 24% 14801 97980 21560 80%
c -  8.93 26 355 0 10 2479 37 20307 7265 4.4 29 7 2 7 24% 14810 97980 21560 80%
c -  9.80 26 351 0 11 2739 37 23469 8878 4.3 29 7 2 7 25% 14913 97980 21560 80%
c s 10.08 26 364 0 11 2810 36 25018 10199 4.3 29 7 2 7 25% 14981 96914 21560 80%
c e 10.21 26 364 0 11 2810 36 25018 10199 4.3 29 7 2 7 25% 11597 101935 19639 73%
c s 10.22 26 364 0 11 2810 36 25018 10199 4.3 29 7 2 7 25% 11610 101647 19639 73%
c e 10.24 26 364 0 11 2810 36 25018 10199 4.3 29 7 2 7 25% 11593 101669 19628 73%
c ^ 10.24 26 364 0 11 2810 36 25018 10199 4.3 29 7 2 7 25% 11593 101669 19628 73%
c - 10.58 26 362 0 12 2925 35 26787 9082 4.2 28 7 2 7 24% 11647 101669 19628 73%
c
c  seconds   switched     rate        size/glue tier1    binary           remaining
c         MB   reductions   conflicts       size  tier2      irredundant
c           level   restarts     redundant    glue   trail           variables
c
c c 10.66 26 362 0 12 2926 35 26927 9202 4.2 28 7 2 7 24% 11670 101541 19605 72%
c d 10.66 26 362 0 12 2926 35 26927 9172 4.2 28 7 2 7 24% 11169 101541 19332 71%
c u 10.71 26 362 0 12 2926 35 26927 7836 4.2 28 7 2 7 24% 11204 101541 19332 71%
c v 10.76 26 362 0 12 2926 35 26927 7036 4.2 28 7 2 7 24% 11205 101541 19332 71%
c w 10.77 26 362 0 12 2926 35 26927 7035 4.2 28 7 2 7 24% 11205 101541 19332 71%
c x 10.86 26 362 0 12 2926 35 26927 7035 4.2 28 7 2 7 24% 11243 100568 19332 71%
c = 11.12 26 362 0 12 2926 35 26927 7035 4.2 28 7 2 7 24% 14011 100564 17948 66%
c d 11.13 26 362 0 12 2926 35 26927 6971 4.2 28 7 2 7 24% 11188 100564 17942 66%
c t 11.15 26 362 0 12 2926 35 26927 6971 4.2 28 7 2 7 24% 11024 100564 17942 66%
c f 11.22 26 362 0 12 2926 35 26927 6971 4.2 28 7 2 7 24% 11071 100389 17977 66%
c c 11.29 26 362 0 12 2926 35 26927 6959 4.2 28 7 2 7 24% 11112 100229 17955 66%
c d 11.30 26 362 0 12 2926 35 26927 6959 4.2 28 7 2 7 24% 11068 100229 17955 66%
c u 11.34 26 362 0 12 2926 35 26927 6550 4.2 28 7 2 7 24% 11074 100229 17955 66%
c v 11.38 26 362 0 12 2926 35 26927 6445 4.2 28 7 2 7 24% 11074 100229 17955 66%
c w 11.39 26 362 0 12 2926 35 26927 6442 4.2 28 7 2 7 24% 11074 100229 17955 66%
c = 11.66 26 362 0 12 2926 35 26927 6442 4.2 28 7 2 7 24% 14540 100221 16222 60%
c d 11.67 26 362 0 12 2926 35 26927 6281 4.2 28 7 2 7 24% 10985 100221 16221 60%
c t 11.69 26 362 0 12 2926 35 26927 6281 4.2 28 7 2 7 24% 10826 100221 16221 60%
c f 11.74 26 362 0 12 2926 35 26927 6281 4.2 28 7 2 7 24% 10847 100121 16244 60%
c - 12.50 26 347 0 13 3147 34 30251 8330 4.1 28 7 2 7 25% 10911 100120 16244 60%
c
c  seconds   switched     rate         size/glue tier1    binary           remaining
c         MB   reductions   conflicts        size  tier2      irredundant
c           level   restarts      redundant    glue   trail           variables
c
c - 13.84 26 327 0 14 3656 34 33858 10502 4.1 28 7 2 7 26% 10954 100119 16244 60%
c - 15.17 26 310 0 15 4163 34 37599 12126 4.1 29 7 2 7 26% 11003 100116 16244 60%
c o 15.90 26 300 0 15 4436 34 40035 14382 4.1 29 7 2 7 26% 11024 100116 16244 60%
c c 16.43 26 295 0 15 4615 34 41258 15463 4.1 29 7 2 7 26% 11077 99798 16178 60%
c d 16.44 26 295 0 15 4615 34 41258 15330 4.1 29 7 2 7 26% 10945 99798 16178 60%
c u 16.52 26 295 0 15 4615 34 41258 13033 4.1 29 7 2 7 26% 10980 99798 16178 60%
c v 16.66 26 295 0 15 4615 34 41258 11275 4.1 29 7 2 7 26% 10986 99798 16178 60%
c w 16.75 26 295 0 15 4615 34 41258 11275 4.1 29 7 2 7 26% 10986 99798 16178 60%
c x 16.87 26 295 0 15 4615 34 41258 11272 4.1 29 7 2 7 26% 11001 84655 16178 60%
c = 17.29 26 295 0 15 4615 34 41258 11272 4.1 29 7 2 7 26% 15561 84655 13898 51%
c d 17.30 26 295 0 15 4615 34 41258 10925 4.1 29 7 2 7 26% 10861 84655 13898 51%
c t 17.32 26 295 0 15 4615 34 41258 10925 4.1 29 7 2 7 26% 10557 84655 13898 51%
c f 17.37 26 295 0 15 4615 34 41258 10925 4.1 29 7 2 7 26% 10608 84423 13954 52%
c u 17.50 26 295 0 15 4615 34 41258 9894 4.1 29 7 2 7 26% 10614 84423 13954 52%
c v 17.58 26 295 0 15 4615 34 41258 9599 4.1 29 7 2 7 26% 10614 84423 13954 52%
c w 17.77 26 295 0 15 4615 34 41258 9582 4.1 29 7 2 7 26% 10614 84423 13954 52%
c x 17.88 26 295 0 15 4615 34 41258 9581 4.1 29 7 2 7 26% 10620 71993 13954 52%
c t 18.27 26 295 0 15 4615 34 41258 9581 4.1 29 7 2 7 26% 10619 71993 13954 52%
c - 18.33 26 294 0 16 4622 34 41471 8479 4.1 29 7 2 6 26% 10632 71993 13954 52%
c - 19.08 26 283 0 17 4956 32 45472 10716 4.0 28 7 2 6 26% 10716 71993 13954 52%
c
c  seconds   switched     rate         size/glue tier1    binary          remaining
c         MB   reductions   conflicts        size  tier2      irredundant
c           level   restarts      redundant    glue   trail          variables
c
c - 19.82 26 272 0 18 5281 31 49596 12869 3.9 28 7 2 6 25% 10792 71990 13954 52%
c s 20.34 26 266 0 18 5511 31 52137 15180 3.9 28 7 2 6 26% 10825 65939 13954 52%
c e 20.43 26 266 0 18 5511 31 52137 15180 3.9 28 7 2 6 26% 10023 67148 13445 50%
c 2 20.43 26 266 0 18 5511 31 52137 15180 3.9 28 7 2 6 26% 10001 67148 13445 50%
c s 20.44 26 266 0 18 5511 31 52137 15180 3.9 28 7 2 6 26% 10013 66620 13445 50%
c e 20.45 26 266 0 18 5511 31 52137 15180 3.9 28 7 2 6 26% 9988 66666 13424 50%
c ^ 20.45 26 266 0 18 5511 31 52137 15180 3.9 28 7 2 6 26% 9988 66666 13424 50%
c i 20.46 26 263 0 18 5511 30 52684 14025 3.8 27 7 2 6 25% 10039 66663 13423 50%
c - 20.68 26 261 0 19 5635 30 53839 13304 3.8 27 7 2 6 25% 10040 66659 13423 50%
c - 21.71 26 250 0 20 6222 30 58199 15313 3.8 28 7 2 6 26% 10066 66659 13423 50%
c d 21.90 26 249 0 20 6312 30 58905 15971 3.8 28 7 2 6 26% 10043 66655 13411 50%
c u 22.00 26 249 0 20 6312 30 58905 13190 3.8 28 7 2 6 26% 10076 66655 13411 50%
c v 22.08 26 249 0 20 6312 30 58905 12279 3.8 28 7 2 6 26% 10076 66655 13411 50%
c w 22.13 26 249 0 20 6312 30 58905 12278 3.8 28 7 2 6 26% 10076 66655 13411 50%
c x 22.20 26 249 0 20 6312 30 58905 12277 3.8 28 7 2 6 26% 10120 66241 13411 50%
c d 22.20 26 249 0 20 6312 30 58905 12260 3.8 28 7 2 6 26% 10116 66241 13409 50%
c t 22.21 26 249 0 20 6312 30 58905 12260 3.8 28 7 2 6 26% 10027 66241 13409 50%
c f 22.23 26 249 0 20 6312 30 58905 12260 3.8 28 7 2 6 26% 10035 66094 13431 50%
c c 22.26 26 249 0 20 6312 30 58905 12242 3.8 28 7 2 6 26% 10045 66060 13426 50%
c d 22.27 26 249 0 20 6312 30 58905 12242 3.8 28 7 2 6 26% 10035 66060 13426 50%
c
c  seconds   switched     rate         size/glue tier1    binary          remaining
c         MB   reductions   conflicts        size  tier2      irredundant
c           level   restarts      redundant    glue   trail          variables
c
c u 22.31 26 249 0 20 6312 30 58905 11552 3.8 28 7 2 6 26% 10046 66060 13426 50%
c v 22.35 26 249 0 20 6312 30 58905 11040 3.8 28 7 2 6 26% 10046 66060 13426 50%
c w 22.41 26 249 0 20 6312 30 58905 11005 3.8 28 7 2 6 26% 10046 66060 13426 50%
c x 22.45 26 249 0 20 6312 30 58905 11004 3.8 28 7 2 6 26% 10056 65929 13426 50%
c = 22.66 26 249 0 20 6312 30 58905 11004 3.8 28 7 2 6 26% 10080 65924 13413 50%
c d 22.66 26 249 0 20 6312 30 58905 10996 3.8 28 7 2 6 26% 10049 65924 13413 50%
c t 22.67 26 249 0 20 6312 30 58905 10996 3.8 28 7 2 6 26% 10027 65924 13413 50%
c f 22.68 26 249 0 20 6312 30 58905 10996 3.8 28 7 2 6 26% 10029 65908 13415 50%
c i 22.74 26 248 0 20 6351 30 59364 11410 3.8 28 7 2 6 26% 10037 65908 13414 50%
c - 23.27 26 244 0 21 6784 30 62672 11597 3.8 28 7 1 6 26% 10066 65907 13414 50%
c i 23.71 26 240 0 21 7110 30 65843 14440 3.8 28 7 1 6 26% 10154 65901 13413 50%
c - 23.94 26 238 0 22 7273 29 67254 13226 3.8 28 7 1 6 27% 10158 65901 13413 50%
c i 24.04 26 236 0 22 7341 29 68319 14108 3.8 28 7 1 6 26% 10188 65901 13412 50%
c i 24.06 26 235 0 22 7354 29 68668 14373 3.8 28 7 1 6 26% 10204 65901 13407 50%
c i 24.06 26 235 0 22 7354 29 68782 14463 3.8 28 7 1 6 26% 10207 65901 13405 50%
c o 24.23 26 233 0 22 7480 29 70038 15663 3.7 28 7 1 6 26% 10210 65901 13405 50%
c - 24.59 26 231 0 23 7743 29 71944 14578 3.7 28 8 1 6 27% 10199 65901 13405 50%
c i 24.78 26 229 0 23 7890 29 73339 15878 3.7 28 8 1 6 27% 10208 65901 13404 50%
c i 24.79 26 230 0 23 7893 29 73492 15990 3.7 28 8 1 6 27% 10213 65900 13403 50%
c i 24.99 26 227 0 23 8064 29 75055 17446 3.7 28 8 1 6 27% 10222 65900 13402 50%
c
c  seconds   switched     rate         size/glue tier1    binary          remaining
c         MB   reductions   conflicts        size  tier2      irredundant
c           level   restarts      redundant    glue   trail          variables
c
c i 25.02 26 227 0 23 8082 29 75247 17626 3.7 28 8 1 6 27% 10230 65900 13401 50%
c i 25.12 26 227 0 23 8159 28 76026 18310 3.7 28 8 1 6 27% 10242 65899 13400 50%
c - 25.26 26 226 0 24 8253 28 76741 15680 3.7 28 8 1 6 27% 10229 65899 13400 50%
c i 25.47 26 224 0 24 8429 28 77867 16740 3.7 28 8 1 6 27% 10240 65899 13399 50%
c i 25.60 26 222 0 24 8525 28 78858 17673 3.7 28 8 1 6 27% 10249 65899 13398 50%
c i 25.66 26 222 0 24 8582 28 79289 18081 3.7 28 8 1 6 27% 10251 65899 13397 50%
c i 25.74 26 221 0 24 8634 28 79861 18617 3.6 28 8 1 6 27% 10256 65899 13396 50%
c d 25.75 26 220 0 24 8634 28 80010 18652 3.6 28 8 1 6 27% 10276 65721 13376 49%
c d 25.75 26 220 0 24 8634 28 80010 18637 3.6 28 8 1 6 27% 10222 65713 13349 49%
c u 25.79 26 220 0 24 8634 28 80010 16774 3.6 28 8 1 6 27% 10258 65713 13346 49%
c v 25.87 26 220 0 24 8634 28 80010 13779 3.6 28 8 1 6 27% 10266 65713 13344 49%
c w 26.03 26 220 0 24 8634 28 80010 13708 3.6 28 8 1 6 27% 10266 65713 13344 49%
c = 26.15 26 220 0 24 8634 28 80010 13708 3.6 28 8 1 6 27% 10360 65607 13290 49%
c d 26.16 26 220 0 24 8634 28 80010 13580 3.6 28 8 1 6 27% 10244 65605 13287 49%
c d 26.16 26 220 0 24 8634 28 80010 13580 3.6 28 8 1 6 27% 10242 65605 13286 49%
c t 26.17 26 220 0 24 8634 28 80010 13580 3.6 28 8 1 6 27% 10139 65605 13286 49%
c f 26.18 26 220 0 24 8634 28 80010 13580 3.6 28 8 1 6 27% 10146 65573 13291 49%
c u 26.21 26 220 0 24 8634 28 80010 13044 3.6 28 8 1 6 27% 10160 65573 13290 49%
c v 26.26 26 220 0 24 8634 28 80010 12432 3.6 28 8 1 6 27% 10161 65573 13290 49%
c w 26.37 26 220 0 24 8634 28 80010 12299 3.6 28 8 1 6 27% 10161 65573 13290 49%
c
c  seconds   switched     rate         size/glue tier1    binary          remaining
c         MB   reductions   conflicts        size  tier2      irredundant
c           level   restarts      redundant    glue   trail          variables
c
c x 26.44 26 220 0 24 8634 28 80010 12285 3.6 28 8 1 6 27% 10185 64510 13290 49%
c = 26.86 26 220 0 24 8634 28 80010 12285 3.6 28 8 1 6 27% 10441 64265 13135 49%
c d 26.87 26 220 0 24 8634 28 80010 12056 3.6 28 8 1 6 27% 10149 64265 13135 49%
c t 26.88 26 220 0 24 8634 28 80010 12056 3.6 28 8 1 6 27% 10039 64265 13135 49%
c f 26.89 26 220 0 24 8634 28 80010 12056 3.6 28 8 1 6 27% 10044 64229 13140 49%
c i 26.89 26 220 0 24 8634 28 80010 12056 3.6 28 8 1 6 27% 10044 64229 13140 49%
c i 26.89 26 220 0 24 8636 28 80048 12092 3.6 28 8 1 6 27% 10044 64229 13139 49%
c } 26.89 26 220 0 24 8639 28 80066 12096 3.6 28 8 1 6 27% 10049 64224 13119 49%
c 0 26.89 26 220 0 24 8639 28 80066 12096 3.6 28 8 1 6 27% 10049 64224 13119 49%
c
c ---- [ result ] ------------------------------------------------------------
c
s UNSATISFIABLE
c
c ---- [ profiling ] ---------------------------------------------------------
c
c          18.32   68.13 %  search
c          18.32   68.13 %  focused
c           8.04   29.89 %  simplify
c           7.78   28.92 %  probe
c           3.10   11.52 %  vivify
c           2.89   10.75 %  sweep
c           0.64    2.39 %  factor
c           0.52    1.94 %  eliminate
c           0.52    1.92 %  congruence
c           0.46    1.71 %  preprocess
c           0.44    1.63 %  substitute
c           0.19    0.71 %  fastel
c           0.15    0.57 %  reduce
c           0.12    0.46 %  transitive
c           0.10    0.35 %  subsume
c           0.07    0.25 %  backbone
c           0.04    0.15 %  lucky
c           0.03    0.12 %  parse
c =============================================
c          26.89  100.00 %  total
c
c ---- [ statistics ] --------------------------------------------------------
c
c chronological:                         4687                6 %  conflicts
c conflicts:                            80066             2977.23 per second
c congruent:                              161                1 %  variables
c decisions:                          2241029               27.99 per conflict
c eliminated:                           12088               45 %  variables
c factored:                              5456               20 %  variables
c fast_eliminated:                       8891               74 %  eliminated
c fast_strengthened:                      149               25 %  per strengthened
c fast_subsumed:                          122                1 %  per subsumed
c iterations:                              17                0 %  variables
c propagations:                      93512620          3477235    per second
c reductions:                              24             3336    interval
c reordered:                                4            20016    interval
c restarts:                              8639                9    interval
c strengthened:                           592                0 %  checks
c substituted:                           7206               27 %  variables
c subsumed:                             10137                1 %  checks
c switched:                                 0                0    interval
c vivified:                             61349               17 %  checks
c
c ---- [ glue usage ] --------------------------------------------------------
c
c focused glue 1   used 83657 clauses 53.34% accumulated 53.34% tier1
c focused glue 2   used 36367 clauses 23.19% accumulated 76.52%
c focused glue 3-4 used 16795 clauses 10.71% accumulated 87.23%
c focused glue 5   used  4180 clauses  2.67% accumulated 89.90%
c focused glue 6   used  3155 clauses  2.01% accumulated 91.91% tier2
c
c ---- [ resources ] ---------------------------------------------------------
c
c maximum-resident-set-size:         27774976 bytes         26 MB
c process-time:                            27s              26.89 seconds
c
c ---- [ shutting down ] -----------------------------------------------------
c
c exit 20
